764 884 403 523
714 834 426 546
759 879 360 471
922 1042 418 538
927 1047 386 506
804 924 372 492
805 925 365 485
908 1028 360 480
865 985 421 541
834 954 430 550
851 971 372 492
881 1001 368 488
844 964 365 485
782 902 407 527
771 891 391 511
833 953 411 531
699 819 395 515
862 982 361 481
819 939 389 509
822 942 368 488
